5 5
3 90 4 28 2 68 0 96 1 38
2 46 4 73 1 26 3 75 0 84
2 53 1 63 0 63 4 38 3 15
2 99 0 9 4 97 1 75 3 22
2 70 3 56 1 37 4 57 0 60
-1
0 1 4 5
0 3 4 5
0 3 5
0 4 5
0 2 5
-2
142 289 510
202 220 352
284 253
441 377
174 332

503 6
12 16 9 3 24
11 7 22 18 4
5 10 15 20 2
0 8 21 14 19
6 1 13 17 23
